DATASET = "thpack6";
INSTANCE = "021";

WIDTH = 233;
HEIGHT = 220;
LENGTH = 587;

NO_OF_SHAPES = 15;
size = [|
  109,93,72 |
  95,67,32 |
  119,45,36 |
  95,78,62 |
  116,89,32 |
  98,65,38 |
  72,51,24 |
  102,88,26 |
  99,47,44 |
  106,52,31 |
  55,41,32 |
  71,65,29 |
  58,57,48 |
  79,56,25 |
  77,67,53 |
|];

verticality = [|
  1,1,1 |
  0,0,1 |
  0,1,1 |
  1,1,1 |
  0,0,1 |
  0,1,1 |
  0,0,1 |
  0,0,1 |
  0,1,1 |
  0,1,1 |
  1,1,1 |
  0,0,1 |
  1,1,1 |
  0,0,1 |
  1,1,1 |
|];

box_count = [
  4,
  6,
  7,
  11,
  10,
  9,
  7,
  9,
  12,
  6,
  6,
  12,
  10,
  11,
  9,
];
